27	3

10	10	10	

0	0	0	0	3	2	3	4	
7	3	5	2	3	5	7	8	
8	5	4	3	2	5	6	
2	5	2	2	1	5	
3	4	1	4	1	10	
5	5	5	4	2	9	11	
5	3	5	2	1	9	
2	2	4	4	1	12	
2	3	2	2	2	13	15	
6	3	2	4	1	13	
3	3	3	2	1	13	
2	4	1	4	3	13	14	16	
2	1	4	4	1	20	
1	2	2	2	1	18	
4	5	5	4	1	19	
2	1	5	4	1	17	
4	4	5	4	2	21	24	
3	3	2	3	1	22	
5	5	3	3	2	22	23	
6	2	4	6	1	21	
4	1	6	2	1	26	
2	3	2	1	1	26	
5	1	0	4	1	25	
2	2	2	1	1	26	
5	0	1	3	1	27	
2	2	2	2	1	27	
0	0	0	0	0	
